2
25
40
40	34
1	1	9	9	
2	1	30	4	
3	1	34	4	
4	2	18	3	33	2	
5	2	5	9	15	10	
6	2	30	4	19	4	
7	1	19	8	
8	2	6	10	26	3	
9	1	7	11	
10	2	13	7	24	2	
11	2	9	6	11	8	
12	2	5	14	28	4	
13	2	20	6	7	13	
14	2	4	15	5	16	
15	2	7	16	19	9	
16	2	9	5	16	3	
17	2	17	3	8	18	
18	1	24	4	
19	2	28	4	23	3	
20	1	31	3	
21	2	5	17	4	18	
22	2	17	9	7	14	
23	1	34	2	
24	1	5	17	
25	1	14	7	
